20
3 15
3 7
3 14
3 4
15 6
15 13
15 12
4 7
4 19
4 2
7 9
7 1
5 9
5 18
5 11
5 17
9 2
9 16
10 17
10 19
10 13
10 14
17 12
17 19
14 6
14 16
6 8
6 13
2 16
2 11
19 16
18 0
18 1
18 8
0 11
0 1
0 13
11 8
12 1
12 8
